p cnf 383 1544
c p weight 11 1 0
c p weight -11 1 0
c p weight 12 0 0
c p weight -12 1 0
c p weight -9 1 0
c p weight 9 -1 0
c p weight 15 6.12323399573676603586882014729198302312846062338790031898128063403419218957424163818359375E-17 0
c p weight -15 1 0
c p weight 16 1 0
c p weight -16 1 0
c p weight -13 1 0
c p weight 13 -1 0
c p weight 19 -0.1335612396259832357348074083347455598413944244384765625 0
c p weight -19 1 0
c p weight 20 0.99104056186897349078890329110436141490936279296875 0
c p weight -20 1 0
c p weight -17 1 0
c p weight 17 -1 0
c p weight 23 6.12323399573676603586882014729198302312846062338790031898128063403419218957424163818359375E-17 0
c p weight -23 1 0
c p weight 24 1 0
c p weight -24 1 0
c p weight -21 1 0
c p weight 21 -1 0
c p weight 27 -1 0
c p weight -27 1 0
c p weight 28 3.673940397442059375002259206809000622711899723162043418511757408850826323032379150390625E-16 0
c p weight -28 1 0
c p weight -25 1 0
c p weight 25 -1 0
c p weight 31 1 0
c p weight -31 1 0
c p weight 32 0 0
c p weight -32 1 0
c p weight -29 1 0
c p weight 29 -1 0
c p weight 35 6.12323399573676603586882014729198302312846062338790031898128063403419218957424163818359375E-17 0
c p weight -35 1 0
c p weight 36 1 0
c p weight -36 1 0
c p weight -33 1 0
c p weight 33 -1 0
c p weight 39 -0.991511476394992374849834959604777395725250244140625 0
c p weight -39 1 0
c p weight 40 -0.130019199263118168108377403768827207386493682861328125 0
c p weight -40 1 0
c p weight -37 1 0
c p weight 37 -1 0
c p weight 43 6.12323399573676603586882014729198302312846062338790031898128063403419218957424163818359375E-17 0
c p weight -43 1 0
c p weight 44 1 0
c p weight -44 1 0
c p weight -41 1 0
c p weight 41 -1 0
c p weight 47 -1 0
c p weight -47 1 0
c p weight 48 3.673940397442059375002259206809000622711899723162043418511757408850826323032379150390625E-16 0
c p weight -48 1 0
c p weight -45 1 0
c p weight 45 -1 0
c p weight -49 1 0
c p weight 49 -1 0
c p weight 54 1 0
c p weight -54 1 0
c p weight 55 0 0
c p weight -55 1 0
c p weight -52 1 0
c p weight 52 -1 0
c p weight 58 6.12323399573676603586882014729198302312846062338790031898128063403419218957424163818359375E-17 0
c p weight -58 1 0
c p weight 59 1 0
c p weight -59 1 0
c p weight -56 1 0
c p weight 56 -1 0
c p weight 62 0.6676589223122142424671210392261855304241180419921875 0
c p weight -62 1 0
c p weight 63 0.74446730180505082952180373467854224145412445068359375 0
c p weight -63 1 0
c p weight -60 1 0
c p weight 60 -1 0
c p weight 66 6.12323399573676603586882014729198302312846062338790031898128063403419218957424163818359375E-17 0
c p weight -66 1 0
c p weight 67 1 0
c p weight -67 1 0
c p weight -64 1 0
c p weight 64 -1 0
c p weight 70 -1 0
c p weight -70 1 0
c p weight 71 3.673940397442059375002259206809000622711899723162043418511757408850826323032379150390625E-16 0
c p weight -71 1 0
c p weight -68 1 0
c p weight 68 -1 0
c p weight -72 1 0
c p weight 72 -1 0
c p weight -75 1 0
c p weight 75 -1 0
c p weight 80 1 0
c p weight -80 1 0
c p weight 81 0 0
c p weight -81 1 0
c p weight -78 1 0
c p weight 78 -1 0
c p weight 84 6.12323399573676603586882014729198302312846062338790031898128063403419218957424163818359375E-17 0
c p weight -84 1 0
c p weight 85 1 0
c p weight -85 1 0
c p weight -82 1 0
c p weight 82 -1 0
c p weight 88 0.00751535691195858411572938706513014039956033229827880859375 0
c p weight -88 1 0
c p weight 89 0.999971759306474528017361080856062471866607666015625 0
c p weight -89 1 0
c p weight -86 1 0
c p weight 86 -1 0
c p weight 92 6.12323399573676603586882014729198302312846062338790031898128063403419218957424163818359375E-17 0
c p weight -92 1 0
c p weight 93 1 0
c p weight -93 1 0
c p weight -90 1 0
c p weight 90 -1 0
c p weight 96 -1 0
c p weight -96 1 0
c p weight 97 3.673940397442059375002259206809000622711899723162043418511757408850826323032379150390625E-16 0
c p weight -97 1 0
c p weight -94 1 0
c p weight 94 -1 0
c p weight -98 1 0
c p weight 98 -1 0
c p weight 103 1 0
c p weight -103 1 0
c p weight 104 0 0
c p weight -104 1 0
c p weight -101 1 0
c p weight 101 -1 0
c p weight 107 6.12323399573676603586882014729198302312846062338790031898128063403419218957424163818359375E-17 0
c p weight -107 1 0
c p weight 108 1 0
c p weight -108 1 0
c p weight -105 1 0
c p weight 105 -1 0
c p weight 111 0.99995600138413631707834383632871322333812713623046875 0
c p weight -111 1 0
c p weight 112 -0.00938058078421928620560521494553540833294391632080078125 0
c p weight -112 1 0
c p weight -109 1 0
c p weight 109 -1 0
c p weight 115 6.12323399573676603586882014729198302312846062338790031898128063403419218957424163818359375E-17 0
c p weight -115 1 0
c p weight 116 1 0
c p weight -116 1 0
c p weight -113 1 0
c p weight 113 -1 0
c p weight 119 -1 0
c p weight -119 1 0
c p weight 120 3.673940397442059375002259206809000622711899723162043418511757408850826323032379150390625E-16 0
c p weight -120 1 0
c p weight -117 1 0
c p weight 117 -1 0
c p weight -121 1 0
c p weight 121 -1 0
c p weight 126 1 0
c p weight -126 1 0
c p weight 127 0 0
c p weight -127 1 0
c p weight -124 1 0
c p weight 124 -1 0
c p weight 130 6.12323399573676603586882014729198302312846062338790031898128063403419218957424163818359375E-17 0
c p weight -130 1 0
c p weight 131 1 0
c p weight -131 1 0
c p weight -128 1 0
c p weight 128 -1 0
c p weight 134 -0.1576963200385754493293433142753201536834239959716796875 0
c p weight -134 1 0
c p weight 135 -0.98748765594628629127527119635487906634807586669921875 0
c p weight -135 1 0
c p weight -132 1 0
c p weight 132 -1 0
c p weight 138 6.12323399573676603586882014729198302312846062338790031898128063403419218957424163818359375E-17 0
c p weight -138 1 0
c p weight 139 1 0
c p weight -139 1 0
c p weight -136 1 0
c p weight 136 -1 0
c p weight 142 -1 0
c p weight -142 1 0
c p weight 143 3.673940397442059375002259206809000622711899723162043418511757408850826323032379150390625E-16 0
c p weight -143 1 0
c p weight -140 1 0
c p weight 140 -1 0
c p weight -144 1 0
c p weight 144 -1 0
c p weight -147 1 0
c p weight 147 -1 0
c p weight 152 1 0
c p weight -152 1 0
c p weight 153 0 0
c p weight -153 1 0
c p weight -150 1 0
c p weight 150 -1 0
c p weight 156 6.12323399573676603586882014729198302312846062338790031898128063403419218957424163818359375E-17 0
c p weight -156 1 0
c p weight 157 1 0
c p weight -157 1 0
c p weight -154 1 0
c p weight 154 -1 0
c p weight 160 -0.3205694895363857543912899927818216383457183837890625 0
c p weight -160 1 0
c p weight 161 -0.94722500092553563177943942719139158725738525390625 0
c p weight -161 1 0
c p weight -158 1 0
c p weight 158 -1 0
c p weight 164 6.12323399573676603586882014729198302312846062338790031898128063403419218957424163818359375E-17 0
c p weight -164 1 0
c p weight 165 1 0
c p weight -165 1 0
c p weight -162 1 0
c p weight 162 -1 0
c p weight 168 -1 0
c p weight -168 1 0
c p weight 169 3.673940397442059375002259206809000622711899723162043418511757408850826323032379150390625E-16 0
c p weight -169 1 0
c p weight -166 1 0
c p weight 166 -1 0
c p weight -170 1 0
c p weight 170 -1 0
c p weight -173 1 0
c p weight 173 -1 0
c p weight 178 1 0
c p weight -178 1 0
c p weight 179 0 0
c p weight -179 1 0
c p weight -176 1 0
c p weight 176 -1 0
c p weight 182 6.12323399573676603586882014729198302312846062338790031898128063403419218957424163818359375E-17 0
c p weight -182 1 0
c p weight 183 1 0
c p weight -183 1 0
c p weight -180 1 0
c p weight 180 -1 0
c p weight 186 -0.06611814736078959475751304353252635337412357330322265625 0
c p weight -186 1 0
c p weight 187 0.99781180118776757748122463453910313546657562255859375 0
c p weight -187 1 0
c p weight -184 1 0
c p weight 184 -1 0
c p weight 190 6.12323399573676603586882014729198302312846062338790031898128063403419218957424163818359375E-17 0
c p weight -190 1 0
c p weight 191 1 0
c p weight -191 1 0
c p weight -188 1 0
c p weight 188 -1 0
c p weight 194 -1 0
c p weight -194 1 0
c p weight 195 3.673940397442059375002259206809000622711899723162043418511757408850826323032379150390625E-16 0
c p weight -195 1 0
c p weight -192 1 0
c p weight 192 -1 0
c p weight -196 1 0
c p weight 196 -1 0
c p weight 201 1 0
c p weight -201 1 0
c p weight 202 0 0
c p weight -202 1 0
c p weight -199 1 0
c p weight 199 -1 0
c p weight 205 6.12323399573676603586882014729198302312846062338790031898128063403419218957424163818359375E-17 0
c p weight -205 1 0
c p weight 206 1 0
c p weight -206 1 0
c p weight -203 1 0
c p weight 203 -1 0
c p weight 209 -0.486641861830141631006796387737267650663852691650390625 0
c p weight -209 1 0
c p weight 210 -0.873601567257347166872705201967619359493255615234375 0
c p weight -210 1 0
c p weight -207 1 0
c p weight 207 -1 0
c p weight 213 6.12323399573676603586882014729198302312846062338790031898128063403419218957424163818359375E-17 0
c p weight -213 1 0
c p weight 214 1 0
c p weight -214 1 0
c p weight -211 1 0
c p weight 211 -1 0
c p weight 217 -1 0
c p weight -217 1 0
c p weight 218 3.673940397442059375002259206809000622711899723162043418511757408850826323032379150390625E-16 0
c p weight -218 1 0
c p weight -215 1 0
c p weight 215 -1 0
c p weight -219 1 0
c p weight 219 -1 0
c p weight 224 1 0
c p weight -224 1 0
c p weight 225 0 0
c p weight -225 1 0
c p weight -222 1 0
c p weight 222 -1 0
c p weight 228 6.12323399573676603586882014729198302312846062338790031898128063403419218957424163818359375E-17 0
c p weight -228 1 0
c p weight 229 1 0
c p weight -229 1 0
c p weight -226 1 0
c p weight 226 -1 0
c p weight 232 -0.849871234472090453238024565507657825946807861328125 0
c p weight -232 1 0
c p weight 233 -0.52699040296468868671553309468436054885387420654296875 0
c p weight -233 1 0
c p weight -230 1 0
c p weight 230 -1 0
c p weight 236 6.12323399573676603586882014729198302312846062338790031898128063403419218957424163818359375E-17 0
c p weight -236 1 0
c p weight 237 1 0
c p weight -237 1 0
c p weight -234 1 0
c p weight 234 -1 0
c p weight 240 -1 0
c p weight -240 1 0
c p weight 241 3.673940397442059375002259206809000622711899723162043418511757408850826323032379150390625E-16 0
c p weight -241 1 0
c p weight -238 1 0
c p weight 238 -1 0
c p weight -242 1 0
c p weight 242 -1 0
c p weight -245 1 0
c p weight 245 -1 0
c p weight 250 1 0
c p weight -250 1 0
c p weight 251 0 0
c p weight -251 1 0
c p weight -248 1 0
c p weight 248 -1 0
c p weight 254 6.12323399573676603586882014729198302312846062338790031898128063403419218957424163818359375E-17 0
c p weight -254 1 0
c p weight 255 1 0
c p weight -255 1 0
c p weight -252 1 0
c p weight 252 -1 0
c p weight 258 0.39507201275466863332752609494491480290889739990234375 0
c p weight -258 1 0
c p weight 259 0.918650153615605091772522428072988986968994140625 0
c p weight -259 1 0
c p weight -256 1 0
c p weight 256 -1 0
c p weight 262 6.12323399573676603586882014729198302312846062338790031898128063403419218957424163818359375E-17 0
c p weight -262 1 0
c p weight 263 1 0
c p weight -263 1 0
c p weight -260 1 0
c p weight 260 -1 0
c p weight 266 -1 0
c p weight -266 1 0
c p weight 267 3.673940397442059375002259206809000622711899723162043418511757408850826323032379150390625E-16 0
c p weight -267 1 0
c p weight -264 1 0
c p weight 264 -1 0
c p weight -268 1 0
c p weight 268 -1 0
c p weight -271 1 0
c p weight 271 -1 0
c p weight 276 1 0
c p weight -276 1 0
c p weight 277 0 0
c p weight -277 1 0
c p weight -274 1 0
c p weight 274 -1 0
c p weight 280 6.12323399573676603586882014729198302312846062338790031898128063403419218957424163818359375E-17 0
c p weight -280 1 0
c p weight 281 1 0
c p weight -281 1 0
c p weight -278 1 0
c p weight 278 -1 0
c p weight 284 -0.957428415249673481213221748475916683673858642578125 0
c p weight -284 1 0
c p weight 285 0.288670798094470992811721998805296607315540313720703125 0
c p weight -285 1 0
c p weight -282 1 0
c p weight 282 -1 0
c p weight 288 6.12323399573676603586882014729198302312846062338790031898128063403419218957424163818359375E-17 0
c p weight -288 1 0
c p weight 289 1 0
c p weight -289 1 0
c p weight -286 1 0
c p weight 286 -1 0
c p weight 292 -1 0
c p weight -292 1 0
c p weight 293 3.673940397442059375002259206809000622711899723162043418511757408850826323032379150390625E-16 0
c p weight -293 1 0
c p weight -290 1 0
c p weight 290 -1 0
c p weight -294 1 0
c p weight 294 -1 0
c p weight 299 1 0
c p weight -299 1 0
c p weight 300 0 0
c p weight -300 1 0
c p weight -297 1 0
c p weight 297 -1 0
c p weight 303 6.12323399573676603586882014729198302312846062338790031898128063403419218957424163818359375E-17 0
c p weight -303 1 0
c p weight 304 1 0
c p weight -304 1 0
c p weight -301 1 0
c p weight 301 -1 0
c p weight 307 -0.9996923050643833352779665801790542900562286376953125 0
c p weight -307 1 0
c p weight 308 -0.0248051445280987915842363378260415629483759403228759765625 0
c p weight -308 1 0
c p weight -305 1 0
c p weight 305 -1 0
c p weight 311 6.12323399573676603586882014729198302312846062338790031898128063403419218957424163818359375E-17 0
c p weight -311 1 0
c p weight 312 1 0
c p weight -312 1 0
c p weight -309 1 0
c p weight 309 -1 0
c p weight 315 -1 0
c p weight -315 1 0
c p weight 316 3.673940397442059375002259206809000622711899723162043418511757408850826323032379150390625E-16 0
c p weight -316 1 0
c p weight -313 1 0
c p weight 313 -1 0
c p weight -317 1 0
c p weight 317 -1 0
c p weight 322 1 0
c p weight -322 1 0
c p weight 323 0 0
c p weight -323 1 0
c p weight -320 1 0
c p weight 320 -1 0
c p weight 326 6.12323399573676603586882014729198302312846062338790031898128063403419218957424163818359375E-17 0
c p weight -326 1 0
c p weight 327 1 0
c p weight -327 1 0
c p weight -324 1 0
c p weight 324 -1 0
c p weight 330 0.99706717591611571105403299952740781009197235107421875 0
c p weight -330 1 0
c p weight 331 0.0765313446285997012186186339022242464125156402587890625 0
c p weight -331 1 0
c p weight -328 1 0
c p weight 328 -1 0
c p weight 334 6.12323399573676603586882014729198302312846062338790031898128063403419218957424163818359375E-17 0
c p weight -334 1 0
c p weight 335 1 0
c p weight -335 1 0
c p weight -332 1 0
c p weight 332 -1 0
c p weight 338 -1 0
c p weight -338 1 0
c p weight 339 3.673940397442059375002259206809000622711899723162043418511757408850826323032379150390625E-16 0
c p weight -339 1 0
c p weight -336 1 0
c p weight 336 -1 0
c p weight -340 1 0
c p weight 340 -1 0
c p weight 345 1 0
c p weight -345 1 0
c p weight 346 0 0
c p weight -346 1 0
c p weight -343 1 0
c p weight 343 -1 0
c p weight 349 6.12323399573676603586882014729198302312846062338790031898128063403419218957424163818359375E-17 0
c p weight -349 1 0
c p weight 350 1 0
c p weight -350 1 0
c p weight -347 1 0
c p weight 347 -1 0
c p weight 353 -0.383385492828330232129019350395537912845611572265625 0
c p weight -353 1 0
c p weight 354 0.92358841693082005530612832444603554904460906982421875 0
c p weight -354 1 0
c p weight -351 1 0
c p weight 351 -1 0
c p weight 357 6.12323399573676603586882014729198302312846062338790031898128063403419218957424163818359375E-17 0
c p weight -357 1 0
c p weight 358 1 0
c p weight -358 1 0
c p weight -355 1 0
c p weight 355 -1 0
c p weight 361 -1 0
c p weight -361 1 0
c p weight 362 3.673940397442059375002259206809000622711899723162043418511757408850826323032379150390625E-16 0
c p weight -362 1 0
c p weight -359 1 0
c p weight 359 -1 0
c p weight 365 1 0
c p weight -365 1 0
c p weight 366 0 0
c p weight -366 1 0
c p weight -363 1 0
c p weight 363 -1 0
c p weight 369 6.12323399573676603586882014729198302312846062338790031898128063403419218957424163818359375E-17 0
c p weight -369 1 0
c p weight 370 1 0
c p weight -370 1 0
c p weight -367 1 0
c p weight 367 -1 0
c p weight 373 0.76029958703417033216709342013928107917308807373046875 0
c p weight -373 1 0
c p weight 374 0.649572580975882996057180207571946084499359130859375 0
c p weight -374 1 0
c p weight -371 1 0
c p weight 371 -1 0
c p weight 377 6.12323399573676603586882014729198302312846062338790031898128063403419218957424163818359375E-17 0
c p weight -377 1 0
c p weight 378 1 0
c p weight -378 1 0
c p weight -375 1 0
c p weight 375 -1 0
c p weight 381 -1 0
c p weight -381 1 0
c p weight 382 3.673940397442059375002259206809000622711899723162043418511757408850826323032379150390625E-16 0
c p weight -382 1 0
c p weight -379 1 0
c p weight 379 -1 0
c p weight 383 0.5 0
c p weight -383 1 0
383 0
-7 0
-5 0
-3 0
-1 0
-9 1 0
-9 2 0
-9 -10 0
9 10 -1 -2 0
10 1 -2 0
-10 1 2 0
-11 1 0
10 -11 -2 0
-10 -11 2 0
10 11 -1 2 0
-10 11 -1 -2 0
-12 1 0
10 -12 2 0
-10 -12 -2 0
10 12 -1 -2 0
-10 12 -1 2 0
-13 14 0
-13 10 0
-13 -1 0
13 -14 1 -10 0
14 -1 10 0
-14 1 10 0
-15 10 0
14 -15 -1 0
-14 -15 1 0
14 15 1 -10 0
-14 15 -1 -10 0
-16 10 0
14 -16 1 0
-14 -16 -1 0
14 16 -1 -10 0
-14 16 1 -10 0
-17 14 0
-17 10 0
-17 -18 0
17 18 -14 -10 0
18 14 -10 0
-18 14 10 0
-19 14 0
18 -19 -10 0
-18 -19 10 0
18 19 -14 10 0
-18 19 -14 -10 0
-20 14 0
18 -20 10 0
-18 -20 -10 0
18 20 -14 -10 0
-18 20 -14 10 0
-21 22 0
-21 18 0
-21 -14 0
21 -22 14 -18 0
22 -14 18 0
-22 14 18 0
-23 18 0
22 -23 -14 0
-22 -23 14 0
22 23 14 -18 0
-22 23 -14 -18 0
-24 18 0
22 -24 14 0
-22 -24 -14 0
22 24 -14 -18 0
-22 24 14 -18 0
-25 22 0
-25 18 0
-25 -26 0
25 26 -22 -18 0
26 22 -18 0
-26 22 18 0
-27 22 0
26 -27 -18 0
-26 -27 18 0
26 27 -22 18 0
-26 27 -22 -18 0
-28 22 0
26 -28 18 0
-26 -28 -18 0
26 28 -22 -18 0
-26 28 -22 18 0
-29 3 0
-29 4 0
-29 -30 0
29 30 -3 -4 0
30 3 -4 0
-30 3 4 0
-31 3 0
30 -31 -4 0
-30 -31 4 0
30 31 -3 4 0
-30 31 -3 -4 0
-32 3 0
30 -32 4 0
-30 -32 -4 0
30 32 -3 -4 0
-30 32 -3 4 0
-33 34 0
-33 30 0
-33 -3 0
33 -34 3 -30 0
34 -3 30 0
-34 3 30 0
-35 30 0
34 -35 -3 0
-34 -35 3 0
34 35 3 -30 0
-34 35 -3 -30 0
-36 30 0
34 -36 3 0
-34 -36 -3 0
34 36 -3 -30 0
-34 36 3 -30 0
-37 34 0
-37 30 0
-37 -38 0
37 38 -34 -30 0
38 34 -30 0
-38 34 30 0
-39 34 0
38 -39 -30 0
-38 -39 30 0
38 39 -34 30 0
-38 39 -34 -30 0
-40 34 0
38 -40 30 0
-38 -40 -30 0
38 40 -34 -30 0
-38 40 -34 30 0
-41 42 0
-41 38 0
-41 -34 0
41 -42 34 -38 0
42 -34 38 0
-42 34 38 0
-43 38 0
42 -43 -34 0
-42 -43 34 0
42 43 34 -38 0
-42 43 -34 -38 0
-44 38 0
42 -44 34 0
-42 -44 -34 0
42 44 -34 -38 0
-42 44 34 -38 0
-45 42 0
-45 38 0
-45 -46 0
45 46 -42 -38 0
46 42 -38 0
-46 42 38 0
-47 42 0
46 -47 -38 0
-46 -47 38 0
46 47 -42 38 0
-46 47 -42 -38 0
-48 42 0
46 -48 38 0
-46 -48 -38 0
46 48 -42 -38 0
-46 48 -42 38 0
-49 22 0
-49 46 0
-49 42 -26 0
-49 -42 26 0
49 -22 42 26 -46 0
49 -22 -42 -26 -46 0
51 22 -42 0
51 -22 42 0
-51 22 42 0
-51 -22 -42 0
50 26 -46 0
50 -26 46 0
-50 26 46 0
-50 -26 -46 0
-52 5 0
-52 6 0
-52 -53 0
52 53 -5 -6 0
53 5 -6 0
-53 5 6 0
-54 5 0
53 -54 -6 0
-53 -54 6 0
53 54 -5 6 0
-53 54 -5 -6 0
-55 5 0
53 -55 6 0
-53 -55 -6 0
53 55 -5 -6 0
-53 55 -5 6 0
-56 57 0
-56 53 0
-56 -5 0
56 -57 5 -53 0
57 -5 53 0
-57 5 53 0
-58 53 0
57 -58 -5 0
-57 -58 5 0
57 58 5 -53 0
-57 58 -5 -53 0
-59 53 0
57 -59 5 0
-57 -59 -5 0
57 59 -5 -53 0
-57 59 5 -53 0
-60 57 0
-60 53 0
-60 -61 0
60 61 -57 -53 0
61 57 -53 0
-61 57 53 0
-62 57 0
61 -62 -53 0
-61 -62 53 0
61 62 -57 53 0
-61 62 -57 -53 0
-63 57 0
61 -63 53 0
-61 -63 -53 0
61 63 -57 -53 0
-61 63 -57 53 0
-64 65 0
-64 61 0
-64 -57 0
64 -65 57 -61 0
65 -57 61 0
-65 57 61 0
-66 61 0
65 -66 -57 0
-65 -66 57 0
65 66 57 -61 0
-65 66 -57 -61 0
-67 61 0
65 -67 57 0
-65 -67 -57 0
65 67 -57 -61 0
-65 67 57 -61 0
-68 65 0
-68 61 0
-68 -69 0
68 69 -65 -61 0
69 65 -61 0
-69 65 61 0
-70 65 0
69 -70 -61 0
-69 -70 61 0
69 70 -65 61 0
-69 70 -65 -61 0
-71 65 0
69 -71 61 0
-69 -71 -61 0
69 71 -65 -61 0
-69 71 -65 61 0
-72 22 0
-72 69 0
-72 65 -50 0
-72 -65 50 0
72 -22 65 50 -69 0
72 -22 -65 -50 -69 0
74 22 -65 0
74 -22 65 0
-74 22 65 0
-74 -22 -65 0
73 50 -69 0
73 -50 69 0
-73 50 69 0
-73 -50 -69 0
-75 51 0
-75 69 0
-75 74 -46 0
-75 -74 46 0
75 -51 74 46 -69 0
75 -51 -74 -46 -69 0
77 51 -74 0
77 -51 74 0
-77 51 74 0
-77 -51 -74 0
76 46 -69 0
76 -46 69 0
-76 46 69 0
-76 -46 -69 0
-78 7 0
-78 8 0
-78 -79 0
78 79 -7 -8 0
79 7 -8 0
-79 7 8 0
-80 7 0
79 -80 -8 0
-79 -80 8 0
79 80 -7 8 0
-79 80 -7 -8 0
-81 7 0
79 -81 8 0
-79 -81 -8 0
79 81 -7 -8 0
-79 81 -7 8 0
-82 83 0
-82 79 0
-82 -7 0
82 -83 7 -79 0
83 -7 79 0
-83 7 79 0
-84 79 0
83 -84 -7 0
-83 -84 7 0
83 84 7 -79 0
-83 84 -7 -79 0
-85 79 0
83 -85 7 0
-83 -85 -7 0
83 85 -7 -79 0
-83 85 7 -79 0
-86 83 0
-86 79 0
-86 -87 0
86 87 -83 -79 0
87 83 -79 0
-87 83 79 0
-88 83 0
87 -88 -79 0
-87 -88 79 0
87 88 -83 79 0
-87 88 -83 -79 0
-89 83 0
87 -89 79 0
-87 -89 -79 0
87 89 -83 -79 0
-87 89 -83 79 0
-90 91 0
-90 87 0
-90 -83 0
90 -91 83 -87 0
91 -83 87 0
-91 83 87 0
-92 87 0
91 -92 -83 0
-91 -92 83 0
91 92 83 -87 0
-91 92 -83 -87 0
-93 87 0
91 -93 83 0
-91 -93 -83 0
91 93 -83 -87 0
-91 93 83 -87 0
-94 91 0
-94 87 0
-94 -95 0
94 95 -91 -87 0
95 91 -87 0
-95 91 87 0
-96 91 0
95 -96 -87 0
-95 -96 87 0
95 96 -91 87 0
-95 96 -91 -87 0
-97 91 0
95 -97 87 0
-95 -97 -87 0
95 97 -91 -87 0
-95 97 -91 87 0
-98 22 0
-98 95 0
-98 91 -73 0
-98 -91 73 0
98 -22 91 73 -95 0
98 -22 -91 -73 -95 0
100 22 -91 0
100 -22 91 0
-100 22 91 0
-100 -22 -91 0
99 73 -95 0
99 -73 95 0
-99 73 95 0
-99 -73 -95 0
-101 22 0
-101 99 0
-101 -102 0
101 102 -22 -99 0
102 22 -99 0
-102 22 99 0
-103 22 0
102 -103 -99 0
-102 -103 99 0
102 103 -22 99 0
-102 103 -22 -99 0
-104 22 0
102 -104 99 0
-102 -104 -99 0
102 104 -22 -99 0
-102 104 -22 99 0
-105 106 0
-105 102 0
-105 -22 0
105 -106 22 -102 0
106 -22 102 0
-106 22 102 0
-107 102 0
106 -107 -22 0
-106 -107 22 0
106 107 22 -102 0
-106 107 -22 -102 0
-108 102 0
106 -108 22 0
-106 -108 -22 0
106 108 -22 -102 0
-106 108 22 -102 0
-109 106 0
-109 102 0
-109 -110 0
109 110 -106 -102 0
110 106 -102 0
-110 106 102 0
-111 106 0
110 -111 -102 0
-110 -111 102 0
110 111 -106 102 0
-110 111 -106 -102 0
-112 106 0
110 -112 102 0
-110 -112 -102 0
110 112 -106 -102 0
-110 112 -106 102 0
-113 114 0
-113 110 0
-113 -106 0
113 -114 106 -110 0
114 -106 110 0
-114 106 110 0
-115 110 0
114 -115 -106 0
-114 -115 106 0
114 115 106 -110 0
-114 115 -106 -110 0
-116 110 0
114 -116 106 0
-114 -116 -106 0
114 116 -106 -110 0
-114 116 106 -110 0
-117 114 0
-117 110 0
-117 -118 0
117 118 -114 -110 0
118 114 -110 0
-118 114 110 0
-119 114 0
118 -119 -110 0
-118 -119 110 0
118 119 -114 110 0
-118 119 -114 -110 0
-120 114 0
118 -120 110 0
-118 -120 -110 0
118 120 -114 -110 0
-118 120 -114 110 0
-121 51 0
-121 95 0
-121 100 -76 0
-121 -100 76 0
121 -51 100 76 -95 0
121 -51 -100 -76 -95 0
123 51 -100 0
123 -51 100 0
-123 51 100 0
-123 -51 -100 0
122 76 -95 0
122 -76 95 0
-122 76 95 0
-122 -76 -95 0
-124 51 0
-124 122 0
-124 -125 0
124 125 -51 -122 0
125 51 -122 0
-125 51 122 0
-126 51 0
125 -126 -122 0
-125 -126 122 0
125 126 -51 122 0
-125 126 -51 -122 0
-127 51 0
125 -127 122 0
-125 -127 -122 0
125 127 -51 -122 0
-125 127 -51 122 0
-128 129 0
-128 125 0
-128 -51 0
128 -129 51 -125 0
129 -51 125 0
-129 51 125 0
-130 125 0
129 -130 -51 0
-129 -130 51 0
129 130 51 -125 0
-129 130 -51 -125 0
-131 125 0
129 -131 51 0
-129 -131 -51 0
129 131 -51 -125 0
-129 131 51 -125 0
-132 129 0
-132 125 0
-132 -133 0
132 133 -129 -125 0
133 129 -125 0
-133 129 125 0
-134 129 0
133 -134 -125 0
-133 -134 125 0
133 134 -129 125 0
-133 134 -129 -125 0
-135 129 0
133 -135 125 0
-133 -135 -125 0
133 135 -129 -125 0
-133 135 -129 125 0
-136 137 0
-136 133 0
-136 -129 0
136 -137 129 -133 0
137 -129 133 0
-137 129 133 0
-138 133 0
137 -138 -129 0
-137 -138 129 0
137 138 129 -133 0
-137 138 -129 -133 0
-139 133 0
137 -139 129 0
-137 -139 -129 0
137 139 -129 -133 0
-137 139 129 -133 0
-140 137 0
-140 133 0
-140 -141 0
140 141 -137 -133 0
141 137 -133 0
-141 137 133 0
-142 137 0
141 -142 -133 0
-141 -142 133 0
141 142 -137 133 0
-141 142 -137 -133 0
-143 137 0
141 -143 133 0
-141 -143 -133 0
141 143 -137 -133 0
-141 143 -137 133 0
-144 114 0
-144 141 0
-144 137 -118 0
-144 -137 118 0
144 -114 137 118 -141 0
144 -114 -137 -118 -141 0
146 114 -137 0
146 -114 137 0
-146 114 137 0
-146 -114 -137 0
145 118 -141 0
145 -118 141 0
-145 118 141 0
-145 -118 -141 0
-147 77 0
-147 95 0
-147 123 -69 0
-147 -123 69 0
147 -77 123 69 -95 0
147 -77 -123 -69 -95 0
149 77 -123 0
149 -77 123 0
-149 77 123 0
-149 -77 -123 0
148 69 -95 0
148 -69 95 0
-148 69 95 0
-148 -69 -95 0
-150 77 0
-150 148 0
-150 -151 0
150 151 -77 -148 0
151 77 -148 0
-151 77 148 0
-152 77 0
151 -152 -148 0
-151 -152 148 0
151 152 -77 148 0
-151 152 -77 -148 0
-153 77 0
151 -153 148 0
-151 -153 -148 0
151 153 -77 -148 0
-151 153 -77 148 0
-154 155 0
-154 151 0
-154 -77 0
154 -155 77 -151 0
155 -77 151 0
-155 77 151 0
-156 151 0
155 -156 -77 0
-155 -156 77 0
155 156 77 -151 0
-155 156 -77 -151 0
-157 151 0
155 -157 77 0
-155 -157 -77 0
155 157 -77 -151 0
-155 157 77 -151 0
-158 155 0
-158 151 0
-158 -159 0
158 159 -155 -151 0
159 155 -151 0
-159 155 151 0
-160 155 0
159 -160 -151 0
-159 -160 151 0
159 160 -155 151 0
-159 160 -155 -151 0
-161 155 0
159 -161 151 0
-159 -161 -151 0
159 161 -155 -151 0
-159 161 -155 151 0
-162 163 0
-162 159 0
-162 -155 0
162 -163 155 -159 0
163 -155 159 0
-163 155 159 0
-164 159 0
163 -164 -155 0
-163 -164 155 0
163 164 155 -159 0
-163 164 -155 -159 0
-165 159 0
163 -165 155 0
-163 -165 -155 0
163 165 -155 -159 0
-163 165 155 -159 0
-166 163 0
-166 159 0
-166 -167 0
166 167 -163 -159 0
167 163 -159 0
-167 163 159 0
-168 163 0
167 -168 -159 0
-167 -168 159 0
167 168 -163 159 0
-167 168 -163 -159 0
-169 163 0
167 -169 159 0
-167 -169 -159 0
167 169 -163 -159 0
-167 169 -163 159 0
-170 114 0
-170 167 0
-170 163 -145 0
-170 -163 145 0
170 -114 163 145 -167 0
170 -114 -163 -145 -167 0
172 114 -163 0
172 -114 163 0
-172 114 163 0
-172 -114 -163 0
171 145 -167 0
171 -145 167 0
-171 145 167 0
-171 -145 -167 0
-173 146 0
-173 167 0
-173 172 -141 0
-173 -172 141 0
173 -146 172 141 -167 0
173 -146 -172 -141 -167 0
175 146 -172 0
175 -146 172 0
-175 146 172 0
-175 -146 -172 0
174 141 -167 0
174 -141 167 0
-174 141 167 0
-174 -141 -167 0
-176 149 0
-176 95 0
-176 -177 0
176 177 -149 -95 0
177 149 -95 0
-177 149 95 0
-178 149 0
177 -178 -95 0
-177 -178 95 0
177 178 -149 95 0
-177 178 -149 -95 0
-179 149 0
177 -179 95 0
-177 -179 -95 0
177 179 -149 -95 0
-177 179 -149 95 0
-180 181 0
-180 177 0
-180 -149 0
180 -181 149 -177 0
181 -149 177 0
-181 149 177 0
-182 177 0
181 -182 -149 0
-181 -182 149 0
181 182 149 -177 0
-181 182 -149 -177 0
-183 177 0
181 -183 149 0
-181 -183 -149 0
181 183 -149 -177 0
-181 183 149 -177 0
-184 181 0
-184 177 0
-184 -185 0
184 185 -181 -177 0
185 181 -177 0
-185 181 177 0
-186 181 0
185 -186 -177 0
-185 -186 177 0
185 186 -181 177 0
-185 186 -181 -177 0
-187 181 0
185 -187 177 0
-185 -187 -177 0
185 187 -181 -177 0
-185 187 -181 177 0
-188 189 0
-188 185 0
-188 -181 0
188 -189 181 -185 0
189 -181 185 0
-189 181 185 0
-190 185 0
189 -190 -181 0
-189 -190 181 0
189 190 181 -185 0
-189 190 -181 -185 0
-191 185 0
189 -191 181 0
-189 -191 -181 0
189 191 -181 -185 0
-189 191 181 -185 0
-192 189 0
-192 185 0
-192 -193 0
192 193 -189 -185 0
193 189 -185 0
-193 189 185 0
-194 189 0
193 -194 -185 0
-193 -194 185 0
193 194 -189 185 0
-193 194 -189 -185 0
-195 189 0
193 -195 185 0
-193 -195 -185 0
193 195 -189 -185 0
-193 195 -189 185 0
-196 114 0
-196 193 0
-196 189 -171 0
-196 -189 171 0
196 -114 189 171 -193 0
196 -114 -189 -171 -193 0
198 114 -189 0
198 -114 189 0
-198 114 189 0
-198 -114 -189 0
197 171 -193 0
197 -171 193 0
-197 171 193 0
-197 -171 -193 0
-199 114 0
-199 197 0
-199 -200 0
199 200 -114 -197 0
200 114 -197 0
-200 114 197 0
-201 114 0
200 -201 -197 0
-200 -201 197 0
200 201 -114 197 0
-200 201 -114 -197 0
-202 114 0
200 -202 197 0
-200 -202 -197 0
200 202 -114 -197 0
-200 202 -114 197 0
-203 204 0
-203 200 0
-203 -114 0
203 -204 114 -200 0
204 -114 200 0
-204 114 200 0
-205 200 0
204 -205 -114 0
-204 -205 114 0
204 205 114 -200 0
-204 205 -114 -200 0
-206 200 0
204 -206 114 0
-204 -206 -114 0
204 206 -114 -200 0
-204 206 114 -200 0
-207 204 0
-207 200 0
-207 -208 0
207 208 -204 -200 0
208 204 -200 0
-208 204 200 0
-209 204 0
208 -209 -200 0
-208 -209 200 0
208 209 -204 200 0
-208 209 -204 -200 0
-210 204 0
208 -210 200 0
-208 -210 -200 0
208 210 -204 -200 0
-208 210 -204 200 0
-211 212 0
-211 208 0
-211 -204 0
211 -212 204 -208 0
212 -204 208 0
-212 204 208 0
-213 208 0
212 -213 -204 0
-212 -213 204 0
212 213 204 -208 0
-212 213 -204 -208 0
-214 208 0
212 -214 204 0
-212 -214 -204 0
212 214 -204 -208 0
-212 214 204 -208 0
-215 212 0
-215 208 0
-215 -216 0
215 216 -212 -208 0
216 212 -208 0
-216 212 208 0
-217 212 0
216 -217 -208 0
-216 -217 208 0
216 217 -212 208 0
-216 217 -212 -208 0
-218 212 0
216 -218 208 0
-216 -218 -208 0
216 218 -212 -208 0
-216 218 -212 208 0
-219 146 0
-219 193 0
-219 198 -174 0
-219 -198 174 0
219 -146 198 174 -193 0
219 -146 -198 -174 -193 0
221 146 -198 0
221 -146 198 0
-221 146 198 0
-221 -146 -198 0
220 174 -193 0
220 -174 193 0
-220 174 193 0
-220 -174 -193 0
-222 146 0
-222 220 0
-222 -223 0
222 223 -146 -220 0
223 146 -220 0
-223 146 220 0
-224 146 0
223 -224 -220 0
-223 -224 220 0
223 224 -146 220 0
-223 224 -146 -220 0
-225 146 0
223 -225 220 0
-223 -225 -220 0
223 225 -146 -220 0
-223 225 -146 220 0
-226 227 0
-226 223 0
-226 -146 0
226 -227 146 -223 0
227 -146 223 0
-227 146 223 0
-228 223 0
227 -228 -146 0
-227 -228 146 0
227 228 146 -223 0
-227 228 -146 -223 0
-229 223 0
227 -229 146 0
-227 -229 -146 0
227 229 -146 -223 0
-227 229 146 -223 0
-230 227 0
-230 223 0
-230 -231 0
230 231 -227 -223 0
231 227 -223 0
-231 227 223 0
-232 227 0
231 -232 -223 0
-231 -232 223 0
231 232 -227 223 0
-231 232 -227 -223 0
-233 227 0
231 -233 223 0
-231 -233 -223 0
231 233 -227 -223 0
-231 233 -227 223 0
-234 235 0
-234 231 0
-234 -227 0
234 -235 227 -231 0
235 -227 231 0
-235 227 231 0
-236 231 0
235 -236 -227 0
-235 -236 227 0
235 236 227 -231 0
-235 236 -227 -231 0
-237 231 0
235 -237 227 0
-235 -237 -227 0
235 237 -227 -231 0
-235 237 227 -231 0
-238 235 0
-238 231 0
-238 -239 0
238 239 -235 -231 0
239 235 -231 0
-239 235 231 0
-240 235 0
239 -240 -231 0
-239 -240 231 0
239 240 -235 231 0
-239 240 -235 -231 0
-241 235 0
239 -241 231 0
-239 -241 -231 0
239 241 -235 -231 0
-239 241 -235 231 0
-242 212 0
-242 239 0
-242 235 -216 0
-242 -235 216 0
242 -212 235 216 -239 0
242 -212 -235 -216 -239 0
244 212 -235 0
244 -212 235 0
-244 212 235 0
-244 -212 -235 0
243 216 -239 0
243 -216 239 0
-243 216 239 0
-243 -216 -239 0
-245 175 0
-245 193 0
-245 221 -167 0
-245 -221 167 0
245 -175 221 167 -193 0
245 -175 -221 -167 -193 0
247 175 -221 0
247 -175 221 0
-247 175 221 0
-247 -175 -221 0
246 167 -193 0
246 -167 193 0
-246 167 193 0
-246 -167 -193 0
-248 175 0
-248 246 0
-248 -249 0
248 249 -175 -246 0
249 175 -246 0
-249 175 246 0
-250 175 0
249 -250 -246 0
-249 -250 246 0
249 250 -175 246 0
-249 250 -175 -246 0
-251 175 0
249 -251 246 0
-249 -251 -246 0
249 251 -175 -246 0
-249 251 -175 246 0
-252 253 0
-252 249 0
-252 -175 0
252 -253 175 -249 0
253 -175 249 0
-253 175 249 0
-254 249 0
253 -254 -175 0
-253 -254 175 0
253 254 175 -249 0
-253 254 -175 -249 0
-255 249 0
253 -255 175 0
-253 -255 -175 0
253 255 -175 -249 0
-253 255 175 -249 0
-256 253 0
-256 249 0
-256 -257 0
256 257 -253 -249 0
257 253 -249 0
-257 253 249 0
-258 253 0
257 -258 -249 0
-257 -258 249 0
257 258 -253 249 0
-257 258 -253 -249 0
-259 253 0
257 -259 249 0
-257 -259 -249 0
257 259 -253 -249 0
-257 259 -253 249 0
-260 261 0
-260 257 0
-260 -253 0
260 -261 253 -257 0
261 -253 257 0
-261 253 257 0
-262 257 0
261 -262 -253 0
-261 -262 253 0
261 262 253 -257 0
-261 262 -253 -257 0
-263 257 0
261 -263 253 0
-261 -263 -253 0
261 263 -253 -257 0
-261 263 253 -257 0
-264 261 0
-264 257 0
-264 -265 0
264 265 -261 -257 0
265 261 -257 0
-265 261 257 0
-266 261 0
265 -266 -257 0
-265 -266 257 0
265 266 -261 257 0
-265 266 -261 -257 0
-267 261 0
265 -267 257 0
-265 -267 -257 0
265 267 -261 -257 0
-265 267 -261 257 0
-268 212 0
-268 265 0
-268 261 -243 0
-268 -261 243 0
268 -212 261 243 -265 0
268 -212 -261 -243 -265 0
270 212 -261 0
270 -212 261 0
-270 212 261 0
-270 -212 -261 0
269 243 -265 0
269 -243 265 0
-269 243 265 0
-269 -243 -265 0
-271 244 0
-271 265 0
-271 270 -239 0
-271 -270 239 0
271 -244 270 239 -265 0
271 -244 -270 -239 -265 0
273 244 -270 0
273 -244 270 0
-273 244 270 0
-273 -244 -270 0
272 239 -265 0
272 -239 265 0
-272 239 265 0
-272 -239 -265 0
-274 247 0
-274 193 0
-274 -275 0
274 275 -247 -193 0
275 247 -193 0
-275 247 193 0
-276 247 0
275 -276 -193 0
-275 -276 193 0
275 276 -247 193 0
-275 276 -247 -193 0
-277 247 0
275 -277 193 0
-275 -277 -193 0
275 277 -247 -193 0
-275 277 -247 193 0
-278 279 0
-278 275 0
-278 -247 0
278 -279 247 -275 0
279 -247 275 0
-279 247 275 0
-280 275 0
279 -280 -247 0
-279 -280 247 0
279 280 247 -275 0
-279 280 -247 -275 0
-281 275 0
279 -281 247 0
-279 -281 -247 0
279 281 -247 -275 0
-279 281 247 -275 0
-282 279 0
-282 275 0
-282 -283 0
282 283 -279 -275 0
283 279 -275 0
-283 279 275 0
-284 279 0
283 -284 -275 0
-283 -284 275 0
283 284 -279 275 0
-283 284 -279 -275 0
-285 279 0
283 -285 275 0
-283 -285 -275 0
283 285 -279 -275 0
-283 285 -279 275 0
-286 287 0
-286 283 0
-286 -279 0
286 -287 279 -283 0
287 -279 283 0
-287 279 283 0
-288 283 0
287 -288 -279 0
-287 -288 279 0
287 288 279 -283 0
-287 288 -279 -283 0
-289 283 0
287 -289 279 0
-287 -289 -279 0
287 289 -279 -283 0
-287 289 279 -283 0
-290 287 0
-290 283 0
-290 -291 0
290 291 -287 -283 0
291 287 -283 0
-291 287 283 0
-292 287 0
291 -292 -283 0
-291 -292 283 0
291 292 -287 283 0
-291 292 -287 -283 0
-293 287 0
291 -293 283 0
-291 -293 -283 0
291 293 -287 -283 0
-291 293 -287 283 0
-294 212 0
-294 291 0
-294 287 -269 0
-294 -287 269 0
294 -212 287 269 -291 0
294 -212 -287 -269 -291 0
296 212 -287 0
296 -212 287 0
-296 212 287 0
-296 -212 -287 0
295 269 -291 0
295 -269 291 0
-295 269 291 0
-295 -269 -291 0
-297 212 0
-297 295 0
-297 -298 0
297 298 -212 -295 0
298 212 -295 0
-298 212 295 0
-299 212 0
298 -299 -295 0
-298 -299 295 0
298 299 -212 295 0
-298 299 -212 -295 0
-300 212 0
298 -300 295 0
-298 -300 -295 0
298 300 -212 -295 0
-298 300 -212 295 0
-301 302 0
-301 298 0
-301 -212 0
301 -302 212 -298 0
302 -212 298 0
-302 212 298 0
-303 298 0
302 -303 -212 0
-302 -303 212 0
302 303 212 -298 0
-302 303 -212 -298 0
-304 298 0
302 -304 212 0
-302 -304 -212 0
302 304 -212 -298 0
-302 304 212 -298 0
-305 302 0
-305 298 0
-305 -306 0
305 306 -302 -298 0
306 302 -298 0
-306 302 298 0
-307 302 0
306 -307 -298 0
-306 -307 298 0
306 307 -302 298 0
-306 307 -302 -298 0
-308 302 0
306 -308 298 0
-306 -308 -298 0
306 308 -302 -298 0
-306 308 -302 298 0
-309 310 0
-309 306 0
-309 -302 0
309 -310 302 -306 0
310 -302 306 0
-310 302 306 0
-311 306 0
310 -311 -302 0
-310 -311 302 0
310 311 302 -306 0
-310 311 -302 -306 0
-312 306 0
310 -312 302 0
-310 -312 -302 0
310 312 -302 -306 0
-310 312 302 -306 0
-313 310 0
-313 306 0
-313 -314 0
313 314 -310 -306 0
314 310 -306 0
-314 310 306 0
-315 310 0
314 -315 -306 0
-314 -315 306 0
314 315 -310 306 0
-314 315 -310 -306 0
-316 310 0
314 -316 306 0
-314 -316 -306 0
314 316 -310 -306 0
-314 316 -310 306 0
-317 244 0
-317 291 0
-317 296 -272 0
-317 -296 272 0
317 -244 296 272 -291 0
317 -244 -296 -272 -291 0
319 244 -296 0
319 -244 296 0
-319 244 296 0
-319 -244 -296 0
318 272 -291 0
318 -272 291 0
-318 272 291 0
-318 -272 -291 0
-320 244 0
-320 318 0
-320 -321 0
320 321 -244 -318 0
321 244 -318 0
-321 244 318 0
-322 244 0
321 -322 -318 0
-321 -322 318 0
321 322 -244 318 0
-321 322 -244 -318 0
-323 244 0
321 -323 318 0
-321 -323 -318 0
321 323 -244 -318 0
-321 323 -244 318 0
-324 325 0
-324 321 0
-324 -244 0
324 -325 244 -321 0
325 -244 321 0
-325 244 321 0
-326 321 0
325 -326 -244 0
-325 -326 244 0
325 326 244 -321 0
-325 326 -244 -321 0
-327 321 0
325 -327 244 0
-325 -327 -244 0
325 327 -244 -321 0
-325 327 244 -321 0
-328 325 0
-328 321 0
-328 -329 0
328 329 -325 -321 0
329 325 -321 0
-329 325 321 0
-330 325 0
329 -330 -321 0
-329 -330 321 0
329 330 -325 321 0
-329 330 -325 -321 0
-331 325 0
329 -331 321 0
-329 -331 -321 0
329 331 -325 -321 0
-329 331 -325 321 0
-332 333 0
-332 329 0
-332 -325 0
332 -333 325 -329 0
333 -325 329 0
-333 325 329 0
-334 329 0
333 -334 -325 0
-333 -334 325 0
333 334 325 -329 0
-333 334 -325 -329 0
-335 329 0
333 -335 325 0
-333 -335 -325 0
333 335 -325 -329 0
-333 335 325 -329 0
-336 333 0
-336 329 0
-336 -337 0
336 337 -333 -329 0
337 333 -329 0
-337 333 329 0
-338 333 0
337 -338 -329 0
-337 -338 329 0
337 338 -333 329 0
-337 338 -333 -329 0
-339 333 0
337 -339 329 0
-337 -339 -329 0
337 339 -333 -329 0
-337 339 -333 329 0
-340 273 0
-340 291 0
-340 319 -265 0
-340 -319 265 0
340 -273 319 265 -291 0
340 -273 -319 -265 -291 0
342 273 -319 0
342 -273 319 0
-342 273 319 0
-342 -273 -319 0
341 265 -291 0
341 -265 291 0
-341 265 291 0
-341 -265 -291 0
-343 273 0
-343 341 0
-343 -344 0
343 344 -273 -341 0
344 273 -341 0
-344 273 341 0
-345 273 0
344 -345 -341 0
-344 -345 341 0
344 345 -273 341 0
-344 345 -273 -341 0
-346 273 0
344 -346 341 0
-344 -346 -341 0
344 346 -273 -341 0
-344 346 -273 341 0
-347 348 0
-347 344 0
-347 -273 0
347 -348 273 -344 0
348 -273 344 0
-348 273 344 0
-349 344 0
348 -349 -273 0
-348 -349 273 0
348 349 273 -344 0
-348 349 -273 -344 0
-350 344 0
348 -350 273 0
-348 -350 -273 0
348 350 -273 -344 0
-348 350 273 -344 0
-351 348 0
-351 344 0
-351 -352 0
351 352 -348 -344 0
352 348 -344 0
-352 348 344 0
-353 348 0
352 -353 -344 0
-352 -353 344 0
352 353 -348 344 0
-352 353 -348 -344 0
-354 348 0
352 -354 344 0
-352 -354 -344 0
352 354 -348 -344 0
-352 354 -348 344 0
-355 356 0
-355 352 0
-355 -348 0
355 -356 348 -352 0
356 -348 352 0
-356 348 352 0
-357 352 0
356 -357 -348 0
-356 -357 348 0
356 357 348 -352 0
-356 357 -348 -352 0
-358 352 0
356 -358 348 0
-356 -358 -348 0
356 358 -348 -352 0
-356 358 348 -352 0
-359 356 0
-359 352 0
-359 -360 0
359 360 -356 -352 0
360 356 -352 0
-360 356 352 0
-361 356 0
360 -361 -352 0
-360 -361 352 0
360 361 -356 352 0
-360 361 -356 -352 0
-362 356 0
360 -362 352 0
-360 -362 -352 0
360 362 -356 -352 0
-360 362 -356 352 0
-363 342 0
-363 291 0
-363 -364 0
363 364 -342 -291 0
364 342 -291 0
-364 342 291 0
-365 342 0
364 -365 -291 0
-364 -365 291 0
364 365 -342 291 0
-364 365 -342 -291 0
-366 342 0
364 -366 291 0
-364 -366 -291 0
364 366 -342 -291 0
-364 366 -342 291 0
-367 368 0
-367 364 0
-367 -342 0
367 -368 342 -364 0
368 -342 364 0
-368 342 364 0
-369 364 0
368 -369 -342 0
-368 -369 342 0
368 369 342 -364 0
-368 369 -342 -364 0
-370 364 0
368 -370 342 0
-368 -370 -342 0
368 370 -342 -364 0
-368 370 342 -364 0
-371 368 0
-371 364 0
-371 -372 0
371 372 -368 -364 0
372 368 -364 0
-372 368 364 0
-373 368 0
372 -373 -364 0
-372 -373 364 0
372 373 -368 364 0
-372 373 -368 -364 0
-374 368 0
372 -374 364 0
-372 -374 -364 0
372 374 -368 -364 0
-372 374 -368 364 0
-375 376 0
-375 372 0
-375 -368 0
375 -376 368 -372 0
376 -368 372 0
-376 368 372 0
-377 372 0
376 -377 -368 0
-376 -377 368 0
376 377 368 -372 0
-376 377 -368 -372 0
-378 372 0
376 -378 368 0
-376 -378 -368 0
376 378 -368 -372 0
-376 378 368 -372 0
-379 376 0
-379 372 0
-379 -380 0
379 380 -376 -372 0
380 376 -372 0
-380 376 372 0
-381 376 0
380 -381 -372 0
-380 -381 372 0
380 381 -376 372 0
-380 381 -376 -372 0
-382 376 0
380 -382 372 0
-380 -382 -372 0
380 382 -376 -372 0
-380 382 -376 372 0
-310 0
-333 0
-337 0
-356 0
-360 0
-376 0
-380 0
